110354
55, 2, 38, 33, 11, 40, 74, 32, 20, 67, 76, 70, 14, 62, 80, 73, 64, 1, 10, 29, 45, 46, 54, 13, 37, 18, 65, 50, 4, 53, 59, 68, 8, 83, 63, 39, 52, 41, 78, 69, 25, 42, 15, 61, 79, 28, 35, 16, 27, 7, 56, 17, 58, 77, 9, 21, 48, 24, 31, 19, 5, 22, 44, 82, 75, 43, 30, 71, 66, 36, 6, 51, 72, 81, 60, 47, 49, 34, 57, 3, 12, 23, 26
